NAME          ClpDefau
ROWS
 N  OBJROW
 L  R_144_0
 L  R_144_1
 L  R_144_2
 L  R_144_3
 L  R_144_4
 L  R_144_5
 L  R_144_6
 L  R_144_7
 L  R_144_8
 L  R_144_9
 L  R_144_10
 L  R_144_11
 L  R_144_12
 L  R_144_13
 L  R_144_14
 L  R_144_15
 L  R_144_16
 L  R_144_17
 L  R_144_18
 L  R_144_19
 L  R_144_20
 L  R_144_21
 L  R_144_22
 L  R_144_23
 L  R_144_24
 L  R_144_25
 L  R_144_26
 L  R_144_27
 L  R_144_28
 L  R_144_29
 L  R_144_30
 L  R_144_31
COLUMNS
    x_0       OBJROW     -8.           R_144_15  3.          
    x_0       R_144_17  6.             R_144_18  9.          
    x_0       R_144_22  8.             R_144_31  7.          
    x_1       OBJROW     -12.          R_144_18  10.         
    x_2       OBJROW     -11.          R_144_1   6.          
    x_2       R_144_4   2.             R_144_5   1.          
    x_2       R_144_9   9.             R_144_10  5.          
    x_2       R_144_16  6.             R_144_19  2.          
    x_2       R_144_21  1.             R_144_23  3.          
    x_2       R_144_26  10.            R_144_27  4.          
    x_2       R_144_28  1.             R_144_29  10.         
    x_3       OBJROW     -47.          R_144_5   5.          
    x_3       R_144_13  8.             R_144_29  3.          
    x_3       R_144_30  4.          
    x_4       OBJROW     -22.          R_144_13  1.          
    x_4       R_144_15  9.             R_144_18  3.          
    x_4       R_144_20  1.          
    x_5       OBJROW     -95.          R_144_0   7.          
    x_5       R_144_6   2.             R_144_11  7.          
    x_5       R_144_12  5.             R_144_13  1.          
    x_5       R_144_15  8.             R_144_19  1.          
    x_5       R_144_22  8.             R_144_23  10.         
    x_5       R_144_26  6.             R_144_28  2.          
    x_5       R_144_29  10.         
    x_6       OBJROW     -86.          R_144_2   8.          
    x_6       R_144_25  6.             R_144_26  9.          
    x_6       R_144_27  7.          
    x_7       OBJROW     -40.          R_144_1   5.          
    x_7       R_144_6   5.             R_144_7   9.          
    x_7       R_144_14  3.             R_144_21  8.          
    x_7       R_144_27  5.          
    x_8       OBJROW     -33.          R_144_13  8.          
    x_8       R_144_17  2.             R_144_18  4.          
    x_8       R_144_23  9.             R_144_25  10.         
    x_8       R_144_29  7.          
    x_9       OBJROW     -78.          R_144_0   4.          
    x_9       R_144_7   10.            R_144_13  2.          
    x_9       R_144_23  8.             R_144_27  9.          
    x_9       R_144_29  1.          
    x_10      OBJROW     -28.          R_144_7   6.          
    x_10      R_144_14  4.             R_144_26  7.          
    x_11      OBJROW     -78.          R_144_3   8.          
    x_11      R_144_7   4.             R_144_11  3.          
    x_12      OBJROW     -5.           R_144_3   6.          
    x_12      R_144_5   3.             R_144_9   3.          
    x_12      R_144_21  6.             R_144_27  6.          
    x_13      OBJROW     -75.          R_144_4   3.          
    x_13      R_144_5   2.             R_144_8   9.          
    x_13      R_144_10  10.            R_144_13  8.          
    x_13      R_144_18  9.             R_144_26  2.          
    x_13      R_144_29  9.             R_144_31  5.          
    x_14      OBJROW     -88.          R_144_5   7.          
    x_14      R_144_7   8.             R_144_8   8.          
    x_14      R_144_12  9.             R_144_14  9.          
    x_14      R_144_20  8.             R_144_21  9.          
    x_14      R_144_22  2.          
    x_15      OBJROW     -21.          R_144_4   4.          
    x_15      R_144_5   4.             R_144_21  9.          
    x_15      R_144_25  3.             R_144_30  4.          
RHS
    RHS       R_144_0   14.            R_144_1   5.          
    RHS       R_144_2   10.            R_144_3   7.          
    RHS       R_144_4   8.             R_144_5   21.         
    RHS       R_144_6   9.             R_144_7   6.          
    RHS       R_144_8   18.            R_144_9   13.         
    RHS       R_144_10  10.            R_144_11  9.          
    RHS       R_144_12  14.            R_144_13  12.         
    RHS       R_144_14  20.            R_144_15  6.          
    RHS       R_144_16  17.            R_144_17  17.         
    RHS       R_144_18  5.             R_144_19  18.         
    RHS       R_144_20  13.            R_144_21  7.          
    RHS       R_144_22  12.            R_144_23  4.          
    RHS       R_144_24  10.            R_144_25  17.         
    RHS       R_144_26  14.            R_144_27  12.         
    RHS       R_144_28  21.            R_144_29  16.         
    RHS       R_144_30  20.            R_144_31  10.         
BOUNDS
 UI BOUND     x_0       100.        
 UI BOUND     x_1       100.        
 UI BOUND     x_2       100.        
 UI BOUND     x_3       100.        
 UI BOUND     x_4       100.        
 UI BOUND     x_5       100.        
 UI BOUND     x_6       100.        
 UI BOUND     x_7       100.        
 UI BOUND     x_8       100.        
 UI BOUND     x_9       100.        
 UI BOUND     x_10      100.        
 UI BOUND     x_11      100.        
 UI BOUND     x_12      100.        
 UI BOUND     x_13      100.        
 UI BOUND     x_14      100.        
 UI BOUND     x_15      100.        
ENDATA
